c WARNING: for repeatability, setting FPU to use double precision
d VARIABLES            195090       
d CONSTRAINTS          892323       
c ============================[ Problem Statistics ]=============================
c |                                                                             |
c |  Number of variables:        195090                                         |
c |  Number of clauses:          892323                                         |
c |  Parse time:                   0.13 s                                       |
c |                                                                             |
c ============================[ Search Statistics ]==============================
c | Conflicts |          ORIGINAL         |          LEARNT          | Progress |
c |           |    Vars  Clauses Literals |    Limit  Clauses Lit/Cl |          |
c ===============================================================================
c |       100 |  172317   827631  1999042 |   303464      100     46 | 11.673 % |
c |       250 |  172317   827631  1999042 |   333811      250     35 | 11.673 % |
c |       475 |  172317   827631  1999042 |   367192      475     35 | 11.673 % |
c |       812 |  172317   827631  1999042 |   403911      812     33 | 11.673 % |
c |      1318 |  172317   827631  1999042 |   444302     1318     69 | 11.673 % |
c |      2077 |  172317   827631  1999042 |   488732     2077     76 | 11.673 % |
c |      3216 |  172317   827631  1999042 |   537606     3216    101 | 11.673 % |
c |      4924 |  172317   827631  1999042 |   591366     4924     95 | 11.673 % |
c |      7486 |  172317   827631  1999042 |   650503     7486    124 | 11.673 % |
c |     11330 |  172317   827631  1999042 |   715553    11330    137 | 11.673 % |
c |     17096 |  172317   827631  1999042 |   787109    17096    138 | 11.673 % |
c |     25745 |  172317   827631  1999042 |   865820    25745    149 | 11.673 % |
c |     38719 |  172317   827631  1999042 |   952402    38719    163 | 11.673 % |
c |     58180 |  172317   827631  1999042 |  1047642    58180    184 | 11.673 % |
c |     87372 |  172317   827631  1999042 |  1152406    87372    173 | 11.673 % |
c |    131161 |  172317   827631  1999042 |  1267647   131161    171 | 11.673 % |
c |    196845 |  172317   827631  1999042 |  1394412   196845    171 | 11.673 % |
c |    295371 |  172317   827631  1999042 |  1533853   295371    159 | 11.673 % |
c |    443160 |  172317   827631  1999042 |  1687238   443160    147 | 11.673 % |
c |    664843 |  172317   827631  1999042 |  1855962   664843    152 | 11.673 % |
c |    997368 |  172317   827631  1999042 |  2041558   997368    154 | 11.673 % |
c |   1496156 |  172317   827631  1999042 |  2245714  1496156    157 | 11.673 % |
c ===============================================================================
c restarts              : 3325
c conflicts             : 1734616        (967 /sec)
c decisions             : 4698552        (0.00 % random) (2619 /sec)
c propagations          : 4051038301     (2257958 /sec)
c conflict literals     : 280512070      (39.81 % deleted)
d RESTARTS             3325
d FAILURES             1734616      
d NODES                4698552      
d BACKTRACKS           4698552      
d PROPAGATIONS         4051038301   
d NOGOODSIZE           161.71 
d MEMORY               1620.00 
d TIME                 1794.12 

s UNKNOWN
